11292.0
[0, 1, 1, 1, 0, 0, 0, 0, 0, 1, 1, 0, 0, 0, 0, 1, 1, 1, 0, 1]
[16, 1, 10, 10, 1, 19, 17, 2, 3, 17, 15, 19, 1, 10, 2, 3, 15, 10, 17, 9, 1, 15, 15, 19, 9, 17, 16, 17, 1, 17, 2, 15, 2, 16, 3, 10, 3, 19, 19, 2, 9, 16, 16, 16, 3, 15, 15, 10, 19, 9]